SDVRP instances/p04/p04_110_tsplib0_split0.vrp
NAME:.\SDVRP_split
BEST_KNOWN: 0
COMMENT: 0
DIMENSION: 517
CAPACITY: 200
EDGE_WEIGHT_FORMAT: FUNCTION
EDGE_WEIGHT_TYPE: EXACT_2D
NODE_COORD_SECTION
1 0.00000 0.00000
2 2 17
3 2 17
4 2 17
5 2 17
6 2 17
7 14 14
8 14 14
9 14 14
10 14 14
11 14 14
12 17 29
13 17 29
14 17 29
15 -15 -9
16 -15 -9
17 5 -5
18 5 -5
19 5 -5
20 5 -5
21 5 -5
22 -14 12
23 -14 12
24 -14 12
25 -14 12
26 -14 12
27 -18 28
28 -4 27
29 -4 27
30 17 -2
31 17 -2
32 17 -2
33 16 -14
34 7 6
35 7 6
36 7 6
37 7 6
38 -4 -3
39 -4 -3
40 -4 -3
41 -4 -3
42 -4 -3
43 -30 -10
44 -23 7
45 -23 7
46 1 -19
47 1 -19
48 1 -19
49 17 6
50 17 6
51 17 6
52 17 6
53 -8 -12
54 -8 -12
55 -18 -2
56 -18 -2
57 -22 -22
58 -22 -22
59 -22 -22
60 -22 -22
61 -22 -22
62 22 23
63 22 23
64 27 7
65 27 7
66 7 22
67 7 22
68 7 22
69 -19 22
70 -19 22
71 -19 22
72 -27 17
73 -27 17
74 -28 3
75 -28 3
76 -28 3
77 -28 3
78 -8 33
79 -8 33
80 -8 33
81 -8 33
82 -5 13
83 8 32
84 8 32
85 8 32
86 8 32
87 23 13
88 23 13
89 23 -8
90 23 -8
91 2 34
92 2 34
93 2 34
94 2 34
95 2 34
96 3 11
97 3 11
98 3 11
99 3 11
100 11 -25
101 11 -25
102 11 -25
103 11 -25
104 26 -2
105 26 -2
106 26 -2
107 27 28
108 27 28
109 27 28
110 27 28
111 27 28
112 28 34
113 -3 -13
114 -3 -13
115 -3 -13
116 -3 -13
117 10 0
118 24 -20
119 -30 -29
120 -30 -29
121 -30 -29
122 -30 -29
123 -25 -18
124 -25 -18
125 -25 -18
126 -14 -25
127 -14 -25
128 -30 29
129 -30 29
130 -30 29
131 -5 -20
132 -5 -20
133 -5 -20
134 4 -25
135 4 -25
136 4 -25
137 4 -25
138 4 -25
139 -3 4
140 -3 4
141 -3 4
142 -3 4
143 -10 -3
144 -10 20
145 -10 20
146 -10 20
147 -10 20
148 -10 20
149 13 -7
150 13 -7
151 13 -7
152 13 -7
153 13 -7
154 21 2
155 21 2
156 21 2
157 6 14
158 6 14
159 6 14
160 0 -18
161 0 -18
162 0 -18
163 20 10
164 20 10
165 20 -15
166 20 -15
167 20 -15
168 20 -15
169 20 -15
170 -20 -5
171 -20 -5
172 -20 -5
173 -20 -5
174 -10 -5
175 -10 -5
176 -10 -5
177 -10 -5
178 -15 15
179 -15 15
180 -15 15
181 -15 15
182 -25 8
183 -25 8
184 -25 8
185 20 25
186 20 25
187 20 25
188 20 25
189 20 25
190 -5 25
191 -5 25
192 -5 25
193 -5 25
194 -15 30
195 -15 30
196 -15 30
197 -15 30
198 -15 30
199 15 0
200 15 0
201 15 0
202 -5 -10
203 -5 -10
204 -5 -10
205 -5 -10
206 -20 -25
207 -20 -25
208 -20 -25
209 -20 -25
210 -5 -30
211 -5 -30
212 -5 -30
213 -5 -30
214 -25 -15
215 -30 -5
216 -30 -5
217 -30 -5
218 -30 -5
219 -30 -5
220 -15 5
221 -15 5
222 -20 25
223 -20 25
224 -20 25
225 -20 25
226 -20 25
227 -20 25
228 10 30
229 10 30
230 10 30
231 10 30
232 10 30
233 10 -15
234 10 -15
235 10 -15
236 10 -15
237 10 -15
238 10 -15
239 10 -25
240 10 -25
241 10 -25
242 10 -25
243 10 -25
244 20 -30
245 20 -30
246 20 -30
247 20 -30
248 20 -30
249 30 0
250 30 0
251 30 0
252 30 0
253 30 0
254 30 0
255 30 -15
256 10 -5
257 10 -5
258 10 -5
259 10 -5
260 0 5
261 0 5
262 6 2
263 6 2
264 6 2
265 6 2
266 29 7
267 29 7
268 5 25
269 5 25
270 5 25
271 5 25
272 -4 17
273 -4 17
274 -4 17
275 0 34
276 0 34
277 0 34
278 0 34
279 18 17
280 18 17
281 18 17
282 30 20
283 30 20
284 30 20
285 28 30
286 28 30
287 28 30
288 28 30
289 28 30
290 28 30
291 -33 25
292 -33 25
293 -33 25
294 -33 25
295 -15 -15
296 -15 -15
297 -15 -15
298 -15 -15
299 -15 -15
300 -15 -15
301 -30 -30
302 -30 -30
303 -30 -30
304 -30 -30
305 25 -23
306 25 -23
307 25 -23
308 25 -23
309 25 -23
310 5 -10
311 5 -10
312 7 -28
313 7 -28
314 7 -28
315 7 -28
316 -11 -23
317 -11 -23
318 -12 -32
319 -12 -32
320 -12 -32
321 -24 -21
322 -24 -21
323 -24 -21
324 -24 -21
325 -24 -21
326 -29 3
327 -29 3
328 -29 3
329 -33 13
330 -33 13
331 -33 13
332 -33 13
333 -27 21
334 -27 21
335 -27 21
336 -27 21
337 -22 17
338 -22 17
339 -22 17
340 -22 17
341 -22 17
342 -29 33
343 -29 33
344 -29 33
345 -29 33
346 12 12
347 12 12
348 14 23
349 14 23
350 14 23
351 -8 8
352 -8 8
353 -8 8
354 -8 8
355 2 -4
356 2 -4
357 2 -4
358 2 -4
359 22 -6
360 22 -6
361 22 -6
362 22 -6
363 22 -6
364 22 -6
365 28 -12
366 28 -12
367 28 -12
368 28 -12
369 28 -12
370 18 -23
371 18 -23
372 18 -23
373 -3 -23
374 -3 -23
375 1 -9
376 1 -9
377 -14 -11
378 -14 -11
379 -14 -11
380 -14 -11
381 -18 -1
382 -18 -1
383 -18 -1
384 -18 -1
385 -18 -1
386 -23 -11
387 -23 -11
388 -23 -11
389 -23 -11
390 -23 -11
391 -11 23
392 -11 23
393 -11 23
394 -8 34
395 -20 42
396 -20 42
397 -20 42
398 -20 42
399 27 42
400 27 42
401 27 42
402 14 38
403 14 38
404 14 38
405 14 38
406 14 38
407 32 -30
408 32 -30
409 32 -30
410 32 -30
411 21 4
412 21 4
413 21 4
414 21 4
415 2 12
416 2 12
417 2 12
418 2 12
419 2 21
420 2 21
421 2 21
422 2 21
423 2 21
424 22 33
425 22 33
426 22 33
427 22 33
428 12 -19
429 9 -18
430 9 -18
431 11 -22
432 11 -22
433 11 -22
434 11 -22
435 14 -24
436 14 -24
437 14 -24
438 14 7
439 14 7
440 18 8
441 18 8
442 18 8
443 18 8
444 18 8
445 18 8
446 26 17
447 22 13
448 22 13
449 22 13
450 21 2
451 20 19
452 20 19
453 20 19
454 -20 12
455 -20 12
456 -20 12
457 -21 2
458 -21 2
459 -21 2
460 -21 2
461 -24 -4
462 -24 -4
463 -24 -4
464 -24 -4
465 -19 -13
466 -19 -13
467 -19 -13
468 -19 -13
469 -31 -17
470 -31 -17
471 -7 -17
472 -7 -17
473 -9 17
474 -9 17
475 -9 17
476 -9 17
477 -9 0
478 -9 0
479 -9 0
480 -9 0
481 -4 32
482 -4 32
483 -4 32
484 -4 32
485 -4 32
486 -4 32
487 -20 -16
488 -20 -16
489 -13 -13
490 -13 -13
491 -13 -13
492 -17 -11
493 -17 -11
494 -9 -8
495 -9 -8
496 -9 -8
497 -10 -11
498 -10 -11
499 -10 -11
500 -13 -8
501 -13 -8
502 -13 -8
503 -10 -14
504 -10 -14
505 -10 -14
506 -10 -14
507 -10 -14
508 -10 -14
509 -16 -14
510 -16 -14
511 -16 -14
512 -15 -9
513 -15 -9
514 -17 -17
515 -17 -17
516 -17 -17
517 -17 -17
DEMAND_SECTION
1 0
2 10
3 2
4 2
5 2
6 1
7 2
8 2
9 2
10 2
11 1
12 2
13 2
14 2
15 10
16 2
17 10
18 2
19 2
20 2
21 2
22 10
23 2
24 2
25 2
26 1
27 10
28 2
29 1
30 2
31 2
32 1
33 2
34 10
35 2
36 2
37 2
38 2
39 2
40 2
41 2
42 1
43 10
44 10
45 1
46 10
47 2
48 2
49 2
50 2
51 2
52 1
53 2
54 1
55 10
56 1
57 10
58 2
59 2
60 2
61 1
62 10
63 1
64 2
65 1
66 10
67 2
68 1
69 10
70 2
71 1
72 10
73 2
74 10
75 2
76 2
77 2
78 10
79 2
80 2
81 1
82 2
83 10
84 2
85 2
86 1
87 2
88 2
89 2
90 1
91 10
92 2
93 2
94 2
95 1
96 10
97 2
98 2
99 2
100 10
101 2
102 2
103 2
104 2
105 2
106 1
107 10
108 2
109 2
110 2
111 1
112 10
113 10
114 2
115 2
116 2
117 10
118 10
119 10
120 2
121 2
122 2
123 2
124 2
125 1
126 2
127 1
128 10
129 2
130 1
131 10
132 2
133 2
134 10
135 2
136 2
137 2
138 1
139 2
140 2
141 2
142 1
143 10
144 2
145 2
146 2
147 2
148 1
149 10
150 2
151 2
152 2
153 1
154 10
155 2
156 1
157 10
158 2
159 1
160 10
161 2
162 1
163 2
164 1
165 10
166 2
167 2
168 2
169 2
170 10
171 2
172 2
173 1
174 10
175 2
176 2
177 1
178 2
179 2
180 2
181 1
182 10
183 2
184 2
185 2
186 2
187 2
188 2
189 1
190 2
191 2
192 2
193 2
194 10
195 2
196 2
197 2
198 1
199 2
200 2
201 2
202 2
203 2
204 2
205 1
206 2
207 2
208 2
209 1
210 2
211 2
212 2
213 2
214 10
215 10
216 2
217 2
218 2
219 1
220 2
221 1
222 10
223 2
224 2
225 2
226 2
227 1
228 10
229 2
230 2
231 2
232 1
233 10
234 2
235 2
236 2
237 2
238 1
239 10
240 2
241 2
242 2
243 2
244 10
245 2
246 2
247 2
248 1
249 10
250 2
251 2
252 2
253 2
254 1
255 2
256 2
257 2
258 2
259 1
260 10
261 2
262 10
263 2
264 2
265 1
266 10
267 2
268 10
269 2
270 2
271 2
272 10
273 2
274 1
275 2
276 2
277 2
278 1
279 10
280 2
281 2
282 10
283 2
284 1
285 10
286 2
287 2
288 2
289 2
290 1
291 10
292 2
293 2
294 2
295 10
296 2
297 2
298 2
299 2
300 1
301 10
302 2
303 2
304 2
305 10
306 2
307 2
308 2
309 1
310 2
311 2
312 10
313 2
314 2
315 2
316 10
317 2
318 2
319 2
320 1
321 10
322 2
323 2
324 2
325 2
326 10
327 2
328 2
329 10
330 2
331 2
332 2
333 10
334 2
335 2
336 1
337 2
338 2
339 2
340 2
341 1
342 10
343 2
344 2
345 1
346 2
347 1
348 10
349 2
350 2
351 10
352 2
353 2
354 2
355 10
356 2
357 2
358 1
359 10
360 2
361 2
362 2
363 2
364 1
365 2
366 2
367 2
368 2
369 1
370 2
371 2
372 2
373 2
374 1
375 10
376 2
377 2
378 2
379 2
380 1
381 10
382 2
383 2
384 2
385 2
386 10
387 2
388 2
389 2
390 2
391 10
392 2
393 1
394 2
395 2
396 2
397 2
398 1
399 10
400 2
401 2
402 2
403 2
404 2
405 2
406 1
407 2
408 2
409 2
410 2
411 10
412 2
413 2
414 2
415 10
416 2
417 2
418 1
419 10
420 2
421 2
422 2
423 2
424 2
425 2
426 2
427 2
428 10
429 2
430 1
431 2
432 2
433 2
434 2
435 10
436 2
437 1
438 10
439 1
440 10
441 2
442 2
443 2
444 2
445 1
446 10
447 10
448 2
449 2
450 10
451 10
452 2
453 1
454 10
455 2
456 1
457 10
458 2
459 2
460 1
461 10
462 2
463 2
464 1
465 10
466 2
467 2
468 2
469 10
470 2
471 10
472 2
473 2
474 2
475 2
476 1
477 2
478 2
479 2
480 1
481 10
482 2
483 2
484 2
485 2
486 1
487 10
488 2
489 10
490 2
491 1
492 10
493 2
494 2
495 2
496 1
497 10
498 2
499 1
500 10
501 2
502 2
503 10
504 2
505 2
506 2
507 2
508 1
509 2
510 2
511 1
512 10
513 2
514 2
515 2
516 2
517 2
DEPOT_SECTION
1
-1
EOF