SDVRP instances/p04/p04_110_tsplib0_split0.sol
516 -19 20 18 17 16 310 309 235 232 234 236 237 233 429 428 427 431 432 433 430 101 102 100 99 239 241 242 238 240 311 314 313 312 137 133 135 136 134 47 46 45 161 160 159 115 114 113 112 374 375 357 354 356 355 -21 25 22 24 23 178 177 180 179 68 70 69 221 226 223 225 222 224 26 197 196 193 194 195 395 394 397 396 344 343 342 341 129 127 128 293 290 291 292 333 334 332 335 330 328 329 331 71 72 340 336 338 339 337 453 455 454 -34 35 36 33 438 437 50 49 51 48 410 411 413 412 444 440 439 442 441 443 162 163 86 87 448 446 447 280 278 279 349 347 348 66 65 67 3 5 4 2 1 416 417 415 414 95 98 97 96 260 259 -38 41 40 39 37 494 493 495 497 496 498 488 489 490 294 297 296 298 295 299 508 509 510 516 514 513 515 486 487 466 465 464 467 491 492 379 377 376 378 511 15 512 14 501 499 500 173 175 176 174 142 -81 271 272 273 475 474 473 472 146 143 145 144 147 390 392 391 192 190 191 189 27 28 80 78 77 79 393 484 483 480 485 482 481 275 277 276 274 92 94 90 93 91 84 85 82 83 228 231 229 227 230 269 268 270 267 418 419 420 422 421 157 156 158 -130 131 132 372 373 211 209 210 212 317 318 319 301 302 303 300 121 120 119 118 469 468 42 218 214 215 216 217 327 326 325 75 73 74 76 182 183 181 43 44 458 456 457 459 220 219 351 350 353 352 139 140 141 138 -198 200 30 31 29 104 103 105 250 249 252 253 248 251 266 265 63 64 445 283 281 282 108 109 110 106 107 289 288 286 284 285 287 111 400 399 398 423 426 424 425 401 403 405 404 402 11 13 12 188 185 184 187 186 62 61 452 451 450 6 9 8 10 7 346 345 -202 203 201 204 52 53 506 505 507 503 504 502 471 470 316 315 125 126 206 207 205 208 58 56 59 60 57 323 321 320 322 324 124 123 122 213 389 386 385 387 388 461 460 462 463 171 170 172 169 55 54 383 382 384 380 381 476 479 478 477 -256 255 257 258 151 148 152 149 150 32 167 165 164 166 168 369 370 371 435 434 436 243 246 245 244 247 407 406 408 409 305 307 308 304 306 117 254 367 368 364 365 366 89 88 360 359 358 363 361 362 449 153 155 154 199 116 263 262 264 261 0 





OBJ=
935.926
BEST_KNOWN=
0.000